NAME: Grid
TYPE: TSP
COMMENT: From Darrell Whitley, Tim Starkweather, and D’Ann Fuquay. Scheduling problems and traveling salesman: The genetic edge recombination operator. In David Schaffer, editor. Proceedings of the Third International Conference on Genetic Algorithms (ICGA). Morgan Kaufmann, June 1989., pages 133–140.
DIMENSION: 36
EDGE_WEIGHT_TYPE: EUC_2D
NODE_COORD_TYPE: TWOD_COORDS
NODE_COORD_SECTION
1 0 0
2 0 2
3 0 4
4 0 6
5 0 8
6 0 10
7 2 0
8 2 2
9 2 4
10 2 6
11 2 8
12 2 10
13 4 0
14 4 2
15 4 4
16 4 6
17 4 8
18 4 10
19 6 0
20 6 2
21 6 4
22 6 6
23 6 8
24 6 10
25 8 0
26 8 2
27 8 4
28 8 6
29 8 8
30 8 10
31 10 0
32 10 2
33 10 4
34 10 6
35 10 8
36 10 10
EOF
